MARKOV
385
2 2 2 2 2 2 2 2 2 2 2 2 2 2 2 2 2 2 2 2 2 2 2 2 2 2 2 2 2 2 2 2 2 2 2 2 2 2 2 2 2 2 2 2 2 2 2 2 2 2 2 2 2 2 2 2 2 2 2 2 2 2 2 2 2 2 2 2 2 2 2 2 2 2 2 2 2 2 2 2 2 2 2 2 2 2 2 2 2 2 2 2 2 2 2 2 2 2 2 2 2 2 3 2 2 2 2 2 2 2 2 3 2 2 2 2 3 2 2 2 2 2 2 2 2 2 2 2 2 3 2 2 2 2 2 2 2 2 2 2 2 2 2 2 2 2 2 2 2 2 2 2 2 2 2 2 2 2 2 2 2 2 2 2 3 2 2 2 2 2 2 2 2 3 2 2 2 2 3 2 2 2 2 2 2 2 2 3 2 2 2 2 3 2 2 2 2 2 2 2 2 2 2 2 2 2 2 2 2 2 2 2 2 2 2 2 2 2 2 2 2 2 2 2 2 2 2 3 2 2 2 2 2 2 2 2 3 2 2 2 2 3 2 2 2 2 2 2 2 2 3 2 2 2 2 3 2 2 2 2 2 2 2 2 2 2 2 2 2 2 2 2 2 2 2 2 2 2 2 2 2 2 2 2 2 2 2 2 2 2 3 2 2 2 2 2 2 2 2 3 2 2 2 2 3 2 2 2 2 2 2 2 2 3 2 2 2 2 3 2 2 2 2 2 2 2 2 2 2 2 2 2 2 2 2 2 2 2 2 2 2 2 2 2 2 2 2 2 2 2 2 2 2 3 2 2 2 2 2 2 2 2 3 2 2 2 2 3 2 2 2 2 2 2 2 2 2 2 2 2 3 2 2 2 2 
385
1 0 
1 1 
1 2 
1 3 
1 4 
1 5 
1 6 
1 7 
1 8 
1 9 
3 9 8 10 
1 11 
1 12 
3 12 11 13 
1 14 
1 15 
3 15 14 16 
4 18 2 3 17 
4 20 0 1 19 
1 18 
1 20 
3 19 17 21 
4 23 6 7 22 
4 25 4 5 24 
1 23 
1 25 
3 24 22 26 
4 28 6 7 27 
4 30 4 5 29 
1 28 
1 30 
3 29 27 31 
4 33 6 7 32 
4 35 4 5 34 
1 33 
1 35 
3 34 32 36 
4 38 11 12 37 
4 40 8 9 39 
1 38 
1 40 
3 39 37 41 
4 43 11 12 42 
4 45 8 9 44 
1 43 
1 45 
3 44 42 46 
4 48 11 12 47 
4 50 14 15 49 
1 48 
1 50 
3 49 47 51 
4 53 22 24 52 
4 55 17 19 54 
1 53 
1 55 
3 54 52 56 
4 58 22 24 57 
4 60 17 19 59 
1 58 
1 60 
3 59 57 61 
4 63 32 34 62 
4 65 47 49 64 
1 63 
1 65 
3 64 62 66 
4 68 32 34 67 
4 70 47 49 69 
1 68 
1 70 
3 69 67 71 
1 72 
1 73 
1 74 
1 75 
1 76 
1 77 
1 78 
1 79 
1 80 
1 81 
1 82 
1 83 
1 84 
1 85 
4 87 74 75 86 
4 89 72 73 88 
2 18 87 
2 20 89 
4 91 78 79 90 
4 93 76 77 92 
2 23 91 
2 25 93 
4 95 78 79 94 
4 97 76 77 96 
2 28 95 
2 30 97 
4 99 78 79 98 
4 101 76 77 100 
2 33 99 
2 35 101 
3 100 98 102 
4 104 82 83 103 
4 106 80 81 105 
2 38 104 
2 40 106 
4 108 82 83 107 
4 110 80 81 109 
2 43 108 
2 45 110 
3 109 107 111 
4 113 82 83 112 
4 115 84 85 114 
2 48 113 
2 50 115 
3 114 112 116 
4 118 90 92 117 
4 120 86 88 119 
2 53 118 
2 55 120 
4 122 90 92 121 
4 124 86 88 123 
2 58 122 
2 60 124 
4 126 98 100 125 
4 128 112 114 127 
2 63 126 
2 65 128 
3 127 125 129 
4 131 98 100 130 
4 133 112 114 132 
2 68 131 
2 70 133 
1 134 
1 135 
1 136 
1 137 
1 138 
1 139 
1 140 
1 141 
1 142 
1 143 
1 144 
1 145 
1 146 
1 147 
4 149 136 137 148 
4 151 134 135 150 
2 87 149 
2 89 151 
4 153 140 141 152 
4 155 138 139 154 
2 91 153 
2 93 155 
4 157 140 141 156 
4 159 138 139 158 
2 95 157 
2 97 159 
4 161 140 141 160 
4 163 138 139 162 
2 99 161 
2 101 163 
3 162 160 164 
4 166 144 145 165 
4 168 142 143 167 
2 104 166 
2 106 168 
4 170 144 145 169 
4 172 142 143 171 
2 108 170 
2 110 172 
3 171 169 173 
4 175 144 145 174 
4 177 146 147 176 
2 113 175 
2 115 177 
3 176 174 178 
4 180 152 154 179 
4 182 148 150 181 
2 118 180 
2 120 182 
4 184 152 154 183 
4 186 148 150 185 
2 122 184 
2 124 186 
3 185 183 187 
4 189 160 162 188 
4 191 174 176 190 
2 126 189 
2 128 191 
3 190 188 192 
4 194 160 162 193 
4 196 174 176 195 
2 131 194 
2 133 196 
1 197 
1 198 
1 199 
1 200 
1 201 
1 202 
1 203 
1 204 
1 205 
1 206 
1 207 
1 208 
1 209 
1 210 
4 212 199 200 211 
4 214 197 198 213 
2 149 212 
2 151 214 
4 216 203 204 215 
4 218 201 202 217 
2 153 216 
2 155 218 
4 220 203 204 219 
4 222 201 202 221 
2 157 220 
2 159 222 
4 224 203 204 223 
4 226 201 202 225 
2 161 224 
2 163 226 
3 225 223 227 
4 229 207 208 228 
4 231 205 206 230 
2 166 229 
2 168 231 
4 233 207 208 232 
4 235 205 206 234 
2 170 233 
2 172 235 
3 234 232 236 
4 238 207 208 237 
4 240 209 210 239 
2 175 238 
2 177 240 
3 239 237 241 
4 243 215 217 242 
4 245 211 213 244 
2 180 243 
2 182 245 
4 247 215 217 246 
4 249 211 213 248 
2 184 247 
2 186 249 
3 248 246 250 
4 252 223 225 251 
4 254 237 239 253 
2 189 252 
2 191 254 
3 253 251 255 
4 257 223 225 256 
4 259 237 239 258 
2 194 257 
2 196 259 
1 260 
1 261 
1 262 
1 263 
1 264 
1 265 
1 266 
1 267 
1 268 
1 269 
1 270 
1 271 
1 272 
1 273 
4 275 262 263 274 
4 277 260 261 276 
2 212 275 
2 214 277 
4 279 266 267 278 
4 281 264 265 280 
2 216 279 
2 218 281 
4 283 266 267 282 
4 285 264 265 284 
2 220 283 
2 222 285 
4 287 266 267 286 
4 289 264 265 288 
2 224 287 
2 226 289 
3 288 286 290 
4 292 270 271 291 
4 294 268 269 293 
2 229 292 
2 231 294 
4 296 270 271 295 
4 298 268 269 297 
2 233 296 
2 235 298 
3 297 295 299 
4 301 270 271 300 
4 303 272 273 302 
2 238 301 
2 240 303 
3 302 300 304 
4 306 278 280 305 
4 308 274 276 307 
2 243 306 
2 245 308 
4 310 278 280 309 
4 312 274 276 311 
2 247 310 
2 249 312 
3 311 309 313 
4 315 286 288 314 
4 317 300 302 316 
2 252 315 
2 254 317 
3 316 314 318 
4 320 286 288 319 
4 322 300 302 321 
2 257 320 
2 259 322 
1 323 
1 324 
1 325 
1 326 
1 327 
1 328 
1 329 
1 330 
1 331 
1 332 
1 333 
1 334 
1 335 
1 336 
4 338 325 326 337 
4 340 323 324 339 
2 275 338 
2 277 340 
4 342 329 330 341 
4 344 327 328 343 
2 279 342 
2 281 344 
4 346 329 330 345 
4 348 327 328 347 
2 283 346 
2 285 348 
4 350 329 330 349 
4 352 327 328 351 
2 287 350 
2 289 352 
3 351 349 353 
4 355 333 334 354 
4 357 331 332 356 
2 292 355 
2 294 357 
4 359 333 334 358 
4 361 331 332 360 
2 296 359 
2 298 361 
3 360 358 362 
4 364 333 334 363 
4 366 335 336 365 
2 301 364 
2 303 366 
3 365 363 367 
4 369 341 343 368 
4 371 337 339 370 
2 306 369 
2 308 371 
4 373 341 343 372 
4 375 337 339 374 
2 310 373 
2 312 375 
4 377 349 351 376 
4 379 363 365 378 
2 315 377 
2 317 379 
3 378 376 380 
4 382 349 351 381 
4 384 363 365 383 
2 320 382 
2 322 384 

2
0.99 0.01 

2
0.99 0.01 

2
0.99 0.01 

2
0.99 0.01 

2
0.99 0.01 

2
0.99 0.01 

2
0.99 0.01 

2
0.99 0.01 

2
0.99 0.01 

2
0.99 0.01 

8
1 0 0.5 0.5 
0.5 0.5 0.1 
0.9 

2
0.99 0.01 

2
0.99 0.01 

8
1 0 0.5 0.5 
0.5 0.5 0.1 
0.9 

2
0.99 0.01 

2
0.99 0.01 

8
1 0 0.5 0.5 
0.5 0.5 0.1 
0.9 

16
1 0 1 0 
0 1 0 
1 1 0 
0 1 1 
0 0 1 

16
1 0 1 0 
0 1 0 
1 1 0 
0 1 1 
0 0 1 

2
0.5 0.5 

2
0.5 0.5 

8
1 0 0.5 0.5 
0.5 0.5 0.1 
0.9 

16
1 0 1 0 
0 1 0 
1 1 0 
0 1 1 
0 0 1 

16
1 0 1 0 
0 1 0 
1 1 0 
0 1 1 
0 0 1 

2
0.5 0.5 

2
0.5 0.5 

8
1 0 0.5 0.5 
0.5 0.5 0.1 
0.9 

16
1 0 1 0 
0 1 0 
1 1 0 
0 1 1 
0 0 1 

16
1 0 1 0 
0 1 0 
1 1 0 
0 1 1 
0 0 1 

2
0.5 0.5 

2
0.5 0.5 

8
1 0 0.5 0.5 
0.5 0.5 0.1 
0.9 

16
1 0 1 0 
0 1 0 
1 1 0 
0 1 1 
0 0 1 

16
1 0 1 0 
0 1 0 
1 1 0 
0 1 1 
0 0 1 

2
0.5 0.5 

2
0.5 0.5 

8
1 0 0.5 0.5 
0.5 0.5 0.1 
0.9 

16
1 0 1 0 
0 1 0 
1 1 0 
0 1 1 
0 0 1 

16
1 0 1 0 
0 1 0 
1 1 0 
0 1 1 
0 0 1 

2
0.5 0.5 

2
0.5 0.5 

8
1 0 0.5 0.5 
0.5 0.5 0.1 
0.9 

16
1 0 1 0 
0 1 0 
1 1 0 
0 1 1 
0 0 1 

16
1 0 1 0 
0 1 0 
1 1 0 
0 1 1 
0 0 1 

2
0.5 0.5 

2
0.5 0.5 

8
1 0 0.5 0.5 
0.5 0.5 0.1 
0.9 

16
1 0 1 0 
0 1 0 
1 1 0 
0 1 1 
0 0 1 

16
1 0 1 0 
0 1 0 
1 1 0 
0 1 1 
0 0 1 

2
0.5 0.5 

2
0.5 0.5 

8
1 0 0.5 0.5 
0.5 0.5 0.1 
0.9 

16
1 0 1 0 
0 1 0 
1 1 0 
0 1 1 
0 0 1 

16
1 0 1 0 
0 1 0 
1 1 0 
0 1 1 
0 0 1 

2
0.5 0.5 

2
0.5 0.5 

8
1 0 0.5 0.5 
0.5 0.5 0.1 
0.9 

16
1 0 1 0 
0 1 0 
1 1 0 
0 1 1 
0 0 1 

16
1 0 1 0 
0 1 0 
1 1 0 
0 1 1 
0 0 1 

2
0.5 0.5 

2
0.5 0.5 

8
1 0 0.5 0.5 
0.5 0.5 0.1 
0.9 

16
1 0 1 0 
0 1 0 
1 1 0 
0 1 1 
0 0 1 

16
1 0 1 0 
0 1 0 
1 1 0 
0 1 1 
0 0 1 

2
0.5 0.5 

2
0.5 0.5 

8
1 0 0.5 0.5 
0.5 0.5 0.1 
0.9 

16
1 0 1 0 
0 1 0 
1 1 0 
0 1 1 
0 0 1 

16
1 0 1 0 
0 1 0 
1 1 0 
0 1 1 
0 0 1 

2
0.5 0.5 

2
0.5 0.5 

8
1 0 0.5 0.5 
0.5 0.5 0.1 
0.9 

2
0.271 0.729 

2
0.271 0.729 

2
0.271 0.729 

2
0.271 0.729 

2
0.271 0.729 

2
0.271 0.729 

2
0.271 0.729 

2
0.271 0.729 

2
0.271 0.729 

2
0.271 0.729 

2
0.271 0.729 

2
0.271 0.729 

2
0.271 0.729 

2
0.271 0.729 

16
1 0 1 0 
0 1 0 
1 1 0 
0 1 1 
0 0 1 

16
1 0 1 0 
0 1 0 
1 1 0 
0 1 1 
0 0 1 

4
1 0 0 1 

4
1 0 0 1 

16
1 0 1 0 
0 1 0 
1 1 0 
0 1 1 
0 0 1 

16
1 0 1 0 
0 1 0 
1 1 0 
0 1 1 
0 0 1 

4
1 0 0 1 

4
1 0 0 1 

16
1 0 1 0 
0 1 0 
1 1 0 
0 1 1 
0 0 1 

16
1 0 1 0 
0 1 0 
1 1 0 
0 1 1 
0 0 1 

4
1 0 0 1 

4
1 0 0 1 

16
1 0 1 0 
0 1 0 
1 1 0 
0 1 1 
0 0 1 

16
1 0 1 0 
0 1 0 
1 1 0 
0 1 1 
0 0 1 

4
1 0 0 1 

4
1 0 0 1 

12
1 0 0 0 
1 0 0 
1 0 0 
0 1 

16
1 0 1 0 
0 1 0 
1 1 0 
0 1 1 
0 0 1 

16
1 0 1 0 
0 1 0 
1 1 0 
0 1 1 
0 0 1 

4
1 0 0 1 

4
1 0 0 1 

16
1 0 1 0 
0 1 0 
1 1 0 
0 1 1 
0 0 1 

16
1 0 1 0 
0 1 0 
1 1 0 
0 1 1 
0 0 1 

4
1 0 0 1 

4
1 0 0 1 

12
1 0 0 0 
1 0 0 
1 0 0 
0 1 

16
1 0 1 0 
0 1 0 
1 1 0 
0 1 1 
0 0 1 

16
1 0 1 0 
0 1 0 
1 1 0 
0 1 1 
0 0 1 

4
1 0 0 1 

4
1 0 0 1 

12
1 0 0 0 
1 0 0 
1 0 0 
0 1 

16
1 0 1 0 
0 1 0 
1 1 0 
0 1 1 
0 0 1 

16
1 0 1 0 
0 1 0 
1 1 0 
0 1 1 
0 0 1 

4
1 0 0 1 

4
1 0 0 1 

16
1 0 1 0 
0 1 0 
1 1 0 
0 1 1 
0 0 1 

16
1 0 1 0 
0 1 0 
1 1 0 
0 1 1 
0 0 1 

4
1 0 0 1 

4
1 0 0 1 

16
1 0 1 0 
0 1 0 
1 1 0 
0 1 1 
0 0 1 

16
1 0 1 0 
0 1 0 
1 1 0 
0 1 1 
0 0 1 

4
1 0 0 1 

4
1 0 0 1 

12
1 0 0 0 
1 0 0 
1 0 0 
0 1 

16
1 0 1 0 
0 1 0 
1 1 0 
0 1 1 
0 0 1 

16
1 0 1 0 
0 1 0 
1 1 0 
0 1 1 
0 0 1 

4
1 0 0 1 

4
1 0 0 1 

2
0.536 0.464 

2
0.536 0.464 

2
0.536 0.464 

2
0.536 0.464 

2
0.536 0.464 

2
0.536 0.464 

2
0.536 0.464 

2
0.536 0.464 

2
0.536 0.464 

2
0.536 0.464 

2
0.536 0.464 

2
0.536 0.464 

2
0.536 0.464 

2
0.536 0.464 

16
1 0 1 0 
0 1 0 
1 1 0 
0 1 1 
0 0 1 

16
1 0 1 0 
0 1 0 
1 1 0 
0 1 1 
0 0 1 

4
0.999077 0.000923 0.000923 0.999077 

4
0.999077 0.000923 0.000923 0.999077 

16
1 0 1 0 
0 1 0 
1 1 0 
0 1 1 
0 0 1 

16
1 0 1 0 
0 1 0 
1 1 0 
0 1 1 
0 0 1 

4
0.999077 0.000923 0.000923 0.999077 

4
0.999077 0.000923 0.000923 0.999077 

16
1 0 1 0 
0 1 0 
1 1 0 
0 1 1 
0 0 1 

16
1 0 1 0 
0 1 0 
1 1 0 
0 1 1 
0 0 1 

4
0.999077 0.000923 0.000923 0.999077 

4
0.999077 0.000923 0.000923 0.999077 

16
1 0 1 0 
0 1 0 
1 1 0 
0 1 1 
0 0 1 

16
1 0 1 0 
0 1 0 
1 1 0 
0 1 1 
0 0 1 

4
0.999077 0.000923 0.000923 0.999077 

4
0.999077 0.000923 0.000923 0.999077 

12
1 0 0 0 
1 0 0 
1 0 0 
0 1 

16
1 0 1 0 
0 1 0 
1 1 0 
0 1 1 
0 0 1 

16
1 0 1 0 
0 1 0 
1 1 0 
0 1 1 
0 0 1 

4
0.999077 0.000923 0.000923 0.999077 

4
0.999077 0.000923 0.000923 0.999077 

16
1 0 1 0 
0 1 0 
1 1 0 
0 1 1 
0 0 1 

16
1 0 1 0 
0 1 0 
1 1 0 
0 1 1 
0 0 1 

4
0.999077 0.000923 0.000923 0.999077 

4
0.999077 0.000923 0.000923 0.999077 

12
1 0 0 0 
1 0 0 
1 0 0 
0 1 

16
1 0 1 0 
0 1 0 
1 1 0 
0 1 1 
0 0 1 

16
1 0 1 0 
0 1 0 
1 1 0 
0 1 1 
0 0 1 

4
0.999077 0.000923 0.000923 0.999077 

4
0.999077 0.000923 0.000923 0.999077 

12
1 0 0 0 
1 0 0 
1 0 0 
0 1 

16
1 0 1 0 
0 1 0 
1 1 0 
0 1 1 
0 0 1 

16
1 0 1 0 
0 1 0 
1 1 0 
0 1 1 
0 0 1 

4
0.999077 0.000923 0.000923 0.999077 

4
0.999077 0.000923 0.000923 0.999077 

16
1 0 1 0 
0 1 0 
1 1 0 
0 1 1 
0 0 1 

16
1 0 1 0 
0 1 0 
1 1 0 
0 1 1 
0 0 1 

4
0.999077 0.000923 0.000923 0.999077 

4
0.999077 0.000923 0.000923 0.999077 

12
1 0 0 0 
1 0 0 
1 0 0 
0 1 

16
1 0 1 0 
0 1 0 
1 1 0 
0 1 1 
0 0 1 

16
1 0 1 0 
0 1 0 
1 1 0 
0 1 1 
0 0 1 

4
0.999077 0.000923 0.000923 0.999077 

4
0.999077 0.000923 0.000923 0.999077 

12
1 0 0 0 
1 0 0 
1 0 0 
0 1 

16
1 0 1 0 
0 1 0 
1 1 0 
0 1 1 
0 0 1 

16
1 0 1 0 
0 1 0 
1 1 0 
0 1 1 
0 0 1 

4
0.999077 0.000923 0.000923 0.999077 

4
0.999077 0.000923 0.000923 0.999077 

2
0.75 0.25 

2
0.75 0.25 

2
0.75 0.25 

2
0.75 0.25 

2
0.75 0.25 

2
0.75 0.25 

2
0.75 0.25 

2
0.75 0.25 

2
0.75 0.25 

2
0.75 0.25 

2
0.75 0.25 

2
0.75 0.25 

2
0.75 0.25 

2
0.75 0.25 

16
1 0 1 0 
0 1 0 
1 1 0 
0 1 1 
0 0 1 

16
1 0 1 0 
0 1 0 
1 1 0 
0 1 1 
0 0 1 

4
0.998168 0.001832 0.001832 0.998168 

4
0.998168 0.001832 0.001832 0.998168 

16
1 0 1 0 
0 1 0 
1 1 0 
0 1 1 
0 0 1 

16
1 0 1 0 
0 1 0 
1 1 0 
0 1 1 
0 0 1 

4
0.998168 0.001832 0.001832 0.998168 

4
0.998168 0.001832 0.001832 0.998168 

16
1 0 1 0 
0 1 0 
1 1 0 
0 1 1 
0 0 1 

16
1 0 1 0 
0 1 0 
1 1 0 
0 1 1 
0 0 1 

4
0.998168 0.001832 0.001832 0.998168 

4
0.998168 0.001832 0.001832 0.998168 

16
1 0 1 0 
0 1 0 
1 1 0 
0 1 1 
0 0 1 

16
1 0 1 0 
0 1 0 
1 1 0 
0 1 1 
0 0 1 

4
0.998168 0.001832 0.001832 0.998168 

4
0.998168 0.001832 0.001832 0.998168 

12
1 0 0 0 
1 0 0 
1 0 0 
0 1 

16
1 0 1 0 
0 1 0 
1 1 0 
0 1 1 
0 0 1 

16
1 0 1 0 
0 1 0 
1 1 0 
0 1 1 
0 0 1 

4
0.998168 0.001832 0.001832 0.998168 

4
0.998168 0.001832 0.001832 0.998168 

16
1 0 1 0 
0 1 0 
1 1 0 
0 1 1 
0 0 1 

16
1 0 1 0 
0 1 0 
1 1 0 
0 1 1 
0 0 1 

4
0.998168 0.001832 0.001832 0.998168 

4
0.998168 0.001832 0.001832 0.998168 

12
1 0 0 0 
1 0 0 
1 0 0 
0 1 

16
1 0 1 0 
0 1 0 
1 1 0 
0 1 1 
0 0 1 

16
1 0 1 0 
0 1 0 
1 1 0 
0 1 1 
0 0 1 

4
0.998168 0.001832 0.001832 0.998168 

4
0.998168 0.001832 0.001832 0.998168 

12
1 0 0 0 
1 0 0 
1 0 0 
0 1 

16
1 0 1 0 
0 1 0 
1 1 0 
0 1 1 
0 0 1 

16
1 0 1 0 
0 1 0 
1 1 0 
0 1 1 
0 0 1 

4
0.998168 0.001832 0.001832 0.998168 

4
0.998168 0.001832 0.001832 0.998168 

16
1 0 1 0 
0 1 0 
1 1 0 
0 1 1 
0 0 1 

16
1 0 1 0 
0 1 0 
1 1 0 
0 1 1 
0 0 1 

4
0.998168 0.001832 0.001832 0.998168 

4
0.998168 0.001832 0.001832 0.998168 

12
1 0 0 0 
1 0 0 
1 0 0 
0 1 

16
1 0 1 0 
0 1 0 
1 1 0 
0 1 1 
0 0 1 

16
1 0 1 0 
0 1 0 
1 1 0 
0 1 1 
0 0 1 

4
0.998168 0.001832 0.001832 0.998168 

4
0.998168 0.001832 0.001832 0.998168 

12
1 0 0 0 
1 0 0 
1 0 0 
0 1 

16
1 0 1 0 
0 1 0 
1 1 0 
0 1 1 
0 0 1 

16
1 0 1 0 
0 1 0 
1 1 0 
0 1 1 
0 0 1 

4
0.998168 0.001832 0.001832 0.998168 

4
0.998168 0.001832 0.001832 0.998168 

2
0.238 0.762 

2
0.238 0.762 

2
0.238 0.762 

2
0.238 0.762 

2
0.238 0.762 

2
0.238 0.762 

2
0.238 0.762 

2
0.238 0.762 

2
0.238 0.762 

2
0.238 0.762 

2
0.238 0.762 

2
0.238 0.762 

2
0.238 0.762 

2
0.238 0.762 

16
1 0 1 0 
0 1 0 
1 1 0 
0 1 1 
0 0 1 

16
1 0 1 0 
0 1 0 
1 1 0 
0 1 1 
0 0 1 

4
0.972412 0.027588 0.027588 0.972412 

4
0.972412 0.027588 0.027588 0.972412 

16
1 0 1 0 
0 1 0 
1 1 0 
0 1 1 
0 0 1 

16
1 0 1 0 
0 1 0 
1 1 0 
0 1 1 
0 0 1 

4
0.972412 0.027588 0.027588 0.972412 

4
0.972412 0.027588 0.027588 0.972412 

16
1 0 1 0 
0 1 0 
1 1 0 
0 1 1 
0 0 1 

16
1 0 1 0 
0 1 0 
1 1 0 
0 1 1 
0 0 1 

4
0.972412 0.027588 0.027588 0.972412 

4
0.972412 0.027588 0.027588 0.972412 

16
1 0 1 0 
0 1 0 
1 1 0 
0 1 1 
0 0 1 

16
1 0 1 0 
0 1 0 
1 1 0 
0 1 1 
0 0 1 

4
0.972412 0.027588 0.027588 0.972412 

4
0.972412 0.027588 0.027588 0.972412 

12
1 0 0 0 
1 0 0 
1 0 0 
0 1 

16
1 0 1 0 
0 1 0 
1 1 0 
0 1 1 
0 0 1 

16
1 0 1 0 
0 1 0 
1 1 0 
0 1 1 
0 0 1 

4
0.972412 0.027588 0.027588 0.972412 

4
0.972412 0.027588 0.027588 0.972412 

16
1 0 1 0 
0 1 0 
1 1 0 
0 1 1 
0 0 1 

16
1 0 1 0 
0 1 0 
1 1 0 
0 1 1 
0 0 1 

4
0.972412 0.027588 0.027588 0.972412 

4
0.972412 0.027588 0.027588 0.972412 

12
1 0 0 0 
1 0 0 
1 0 0 
0 1 

16
1 0 1 0 
0 1 0 
1 1 0 
0 1 1 
0 0 1 

16
1 0 1 0 
0 1 0 
1 1 0 
0 1 1 
0 0 1 

4
0.972412 0.027588 0.027588 0.972412 

4
0.972412 0.027588 0.027588 0.972412 

12
1 0 0 0 
1 0 0 
1 0 0 
0 1 

16
1 0 1 0 
0 1 0 
1 1 0 
0 1 1 
0 0 1 

16
1 0 1 0 
0 1 0 
1 1 0 
0 1 1 
0 0 1 

4
0.972412 0.027588 0.027588 0.972412 

4
0.972412 0.027588 0.027588 0.972412 

16
1 0 1 0 
0 1 0 
1 1 0 
0 1 1 
0 0 1 

16
1 0 1 0 
0 1 0 
1 1 0 
0 1 1 
0 0 1 

4
0.972412 0.027588 0.027588 0.972412 

4
0.972412 0.027588 0.027588 0.972412 

12
1 0 0 0 
1 0 0 
1 0 0 
0 1 

16
1 0 1 0 
0 1 0 
1 1 0 
0 1 1 
0 0 1 

16
1 0 1 0 
0 1 0 
1 1 0 
0 1 1 
0 0 1 

4
0.972412 0.027588 0.027588 0.972412 

4
0.972412 0.027588 0.027588 0.972412 

12
1 0 0 0 
1 0 0 
1 0 0 
0 1 

16
1 0 1 0 
0 1 0 
1 1 0 
0 1 1 
0 0 1 

16
1 0 1 0 
0 1 0 
1 1 0 
0 1 1 
0 0 1 

4
0.972412 0.027588 0.027588 0.972412 

4
0.972412 0.027588 0.027588 0.972412 

2
0.988 0.012 

2
0.988 0.012 

2
0.988 0.012 

2
0.988 0.012 

2
0.988 0.012 

2
0.988 0.012 

2
0.988 0.012 

2
0.988 0.012 

2
0.988 0.012 

2
0.988 0.012 

2
0.988 0.012 

2
0.988 0.012 

2
0.988 0.012 

2
0.988 0.012 

16
1 0 1 0 
0 1 0 
1 1 0 
0 1 1 
0 0 1 

16
1 0 1 0 
0 1 0 
1 1 0 
0 1 1 
0 0 1 

4
0.969216 0.030784 0.030784 0.969216 

4
0.969216 0.030784 0.030784 0.969216 

16
1 0 1 0 
0 1 0 
1 1 0 
0 1 1 
0 0 1 

16
1 0 1 0 
0 1 0 
1 1 0 
0 1 1 
0 0 1 

4
0.969216 0.030784 0.030784 0.969216 

4
0.969216 0.030784 0.030784 0.969216 

16
1 0 1 0 
0 1 0 
1 1 0 
0 1 1 
0 0 1 

16
1 0 1 0 
0 1 0 
1 1 0 
0 1 1 
0 0 1 

4
0.969216 0.030784 0.030784 0.969216 

4
0.969216 0.030784 0.030784 0.969216 

16
1 0 1 0 
0 1 0 
1 1 0 
0 1 1 
0 0 1 

16
1 0 1 0 
0 1 0 
1 1 0 
0 1 1 
0 0 1 

4
0.969216 0.030784 0.030784 0.969216 

4
0.969216 0.030784 0.030784 0.969216 

12
1 0 0 0 
1 0 0 
1 0 0 
0 1 

16
1 0 1 0 
0 1 0 
1 1 0 
0 1 1 
0 0 1 

16
1 0 1 0 
0 1 0 
1 1 0 
0 1 1 
0 0 1 

4
0.969216 0.030784 0.030784 0.969216 

4
0.969216 0.030784 0.030784 0.969216 

16
1 0 1 0 
0 1 0 
1 1 0 
0 1 1 
0 0 1 

16
1 0 1 0 
0 1 0 
1 1 0 
0 1 1 
0 0 1 

4
0.969216 0.030784 0.030784 0.969216 

4
0.969216 0.030784 0.030784 0.969216 

12
1 0 0 0 
1 0 0 
1 0 0 
0 1 

16
1 0 1 0 
0 1 0 
1 1 0 
0 1 1 
0 0 1 

16
1 0 1 0 
0 1 0 
1 1 0 
0 1 1 
0 0 1 

4
0.969216 0.030784 0.030784 0.969216 

4
0.969216 0.030784 0.030784 0.969216 

12
1 0 0 0 
1 0 0 
1 0 0 
0 1 

16
1 0 1 0 
0 1 0 
1 1 0 
0 1 1 
0 0 1 

16
1 0 1 0 
0 1 0 
1 1 0 
0 1 1 
0 0 1 

4
0.969216 0.030784 0.030784 0.969216 

4
0.969216 0.030784 0.030784 0.969216 

16
1 0 1 0 
0 1 0 
1 1 0 
0 1 1 
0 0 1 

16
1 0 1 0 
0 1 0 
1 1 0 
0 1 1 
0 0 1 

4
0.969216 0.030784 0.030784 0.969216 

4
0.969216 0.030784 0.030784 0.969216 

16
1 0 1 0 
0 1 0 
1 1 0 
0 1 1 
0 0 1 

16
1 0 1 0 
0 1 0 
1 1 0 
0 1 1 
0 0 1 

4
0.969216 0.030784 0.030784 0.969216 

4
0.969216 0.030784 0.030784 0.969216 

12
1 0 0 0 
1 0 0 
1 0 0 
0 1 

16
1 0 1 0 
0 1 0 
1 1 0 
0 1 1 
0 0 1 

16
1 0 1 0 
0 1 0 
1 1 0 
0 1 1 
0 0 1 

4
0.969216 0.030784 0.030784 0.969216 

4
0.969216 0.030784 0.030784 0.969216 

